200 1227
636 182 728 269 1022 352 187 210 1171 542 985 504 824 204 268 1037 719 1065 609 517 1077 58 325 561 21 562 680 775 110 920 102 1183 1148 868 278 708 1155 714 1102 32 360 864 363 139 39 593 1206 971 822 1036 248 850 821 682 1024 275 568 749 616 1051 629 717 879 1109 434 890 203 1031 1208 339 692 411 746 558 7 856 1170 531 261 421 213 1174 731 546 888 130 963 574 1194 956 494 480 92 148 972 281 36 1175 928 1114 60 2 138 849 422 353 457 319 1074 991 2 1171 16 661 573 1201 224 577 1080 1220 791 215 833 703 363 973 1207 925 192 833 411 706 26 1062 47 887 820 1170 969 1016 111 506 921 1141 466 405 504 1026 1159 736 348 615 1062 241 1013 405 118 505 645 1224 939 294 711 253 706 186 1041 441 753 665 250 31 66 345 737 447 970 493 642 768 702 926 996 89 1161 795 1203 226 858 356 654 1211 43 374 482 825 433 1210 687 1166 